BAYES
324
2 2 2 2 2 2 2 2 2 2 2 2 2 2 2 2 2 2 2 2 2 2 2 2 2 2 2 2 2 2 2 2 2 2 2 2 2 2 2 2 2 2 2 2 2 2 2 2 2 2 2 2 2 2 2 2 2 2 2 2 2 2 2 2 2 2 2 2 2 2 2 2 2 2 2 2 2 2 2 2 2 2 2 2 2 2 2 2 2 2 2 2 2 2 2 2 2 2 2 2 2 2 2 2 2 2 2 2 2 2 2 2 2 2 2 2 2 2 2 2 2 2 2 2 2 2 2 2 2 2 2 2 2 2 2 2 2 2 2 2 2 2 2 2 2 2 2 2 2 2 2 2 2 2 2 2 2 2 2 2 2 2 2 2 2 2 2 2 2 2 2 2 2 2 2 2 2 2 2 2 2 2 2 2 2 2 2 2 2 2 2 2 2 2 2 2 2 2 2 2 2 2 2 2 2 2 2 2 2 2 2 2 2 2 2 2 2 2 2 2 2 2 2 2 2 2 2 2 2 2 2 2 2 2 2 2 2 2 2 2 2 2 2 2 2 2 2 2 2 2 2 2 2 2 2 2 2 2 2 2 2 2 2 2 2 2 2 2 2 2 2 2 2 2 2 2 2 2 2 2 2 2 2 2 2 2 2 2 2 2 2 2 2 2 2 2 2 2 2 2 2 2 2 2 2 2 2 2 2 2 2 2 2 2 2 2 2 2 2 2 2 2 2 2
324
3 1 18 0
3 2 19 1
3 3 20 2
3 4 21 3
3 5 22 4
3 6 23 5
3 7 24 6
3 8 25 7
3 9 26 8
3 10 27 9
3 11 28 10
3 12 29 11
3 13 30 12
3 14 31 13
3 15 32 14
3 16 33 15
3 17 34 16
2 18 17
3 19 36 18
3 20 37 19
3 21 38 20
3 22 39 21
3 23 40 22
3 24 41 23
3 25 42 24
3 26 43 25
3 27 44 26
3 28 45 27
3 29 46 28
3 30 47 29
3 31 48 30
3 32 49 31
3 33 50 32
3 34 51 33
3 35 52 34
2 36 35
3 37 54 36
3 38 55 37
3 39 56 38
3 40 57 39
3 41 58 40
3 42 59 41
3 43 60 42
3 44 61 43
3 45 62 44
3 46 63 45
3 47 64 46
3 48 65 47
3 49 66 48
3 50 67 49
3 51 68 50
3 52 69 51
3 53 70 52
2 54 53
3 55 72 54
3 56 73 55
3 57 74 56
3 58 75 57
3 59 76 58
3 60 77 59
3 61 78 60
3 62 79 61
3 63 80 62
3 64 81 63
3 65 82 64
3 66 83 65
3 67 84 66
3 68 85 67
3 69 86 68
3 70 87 69
3 71 88 70
2 72 71
3 73 90 72
3 74 91 73
3 75 92 74
3 76 93 75
3 77 94 76
3 78 95 77
3 79 96 78
3 80 97 79
3 81 98 80
3 82 99 81
3 83 100 82
3 84 101 83
3 85 102 84
3 86 103 85
3 87 104 86
3 88 105 87
3 89 106 88
2 90 89
3 91 108 90
3 92 109 91
3 93 110 92
3 94 111 93
3 95 112 94
3 96 113 95
3 97 114 96
3 98 115 97
3 99 116 98
3 100 117 99
3 101 118 100
3 102 119 101
3 103 120 102
3 104 121 103
3 105 122 104
3 106 123 105
3 107 124 106
2 108 107
3 109 126 108
3 110 127 109
3 111 128 110
3 112 129 111
3 113 130 112
3 114 131 113
3 115 132 114
3 116 133 115
3 117 134 116
3 118 135 117
3 119 136 118
3 120 137 119
3 121 138 120
3 122 139 121
3 123 140 122
3 124 141 123
3 125 142 124
2 126 125
3 127 144 126
3 128 145 127
3 129 146 128
3 130 147 129
3 131 148 130
3 132 149 131
3 133 150 132
3 134 151 133
3 135 152 134
3 136 153 135
3 137 154 136
3 138 155 137
3 139 156 138
3 140 157 139
3 141 158 140
3 142 159 141
3 143 160 142
2 144 143
3 145 162 144
3 146 163 145
3 147 164 146
3 148 165 147
3 149 166 148
3 150 167 149
3 151 168 150
3 152 169 151
3 153 170 152
3 154 171 153
3 155 172 154
3 156 173 155
3 157 174 156
3 158 175 157
3 159 176 158
3 160 177 159
3 161 178 160
2 162 161
3 163 180 162
3 164 181 163
3 165 182 164
3 166 183 165
3 167 184 166
3 168 185 167
3 169 186 168
3 170 187 169
3 171 188 170
3 172 189 171
3 173 190 172
3 174 191 173
3 175 192 174
3 176 193 175
3 177 194 176
3 178 195 177
3 179 196 178
2 180 179
3 181 198 180
3 182 199 181
3 183 200 182
3 184 201 183
3 185 202 184
3 186 203 185
3 187 204 186
3 188 205 187
3 189 206 188
3 190 207 189
3 191 208 190
3 192 209 191
3 193 210 192
3 194 211 193
3 195 212 194
3 196 213 195
3 197 214 196
2 198 197
3 199 216 198
3 200 217 199
3 201 218 200
3 202 219 201
3 203 220 202
3 204 221 203
3 205 222 204
3 206 223 205
3 207 224 206
3 208 225 207
3 209 226 208
3 210 227 209
3 211 228 210
3 212 229 211
3 213 230 212
3 214 231 213
3 215 232 214
2 216 215
3 217 234 216
3 218 235 217
3 219 236 218
3 220 237 219
3 221 238 220
3 222 239 221
3 223 240 222
3 224 241 223
3 225 242 224
3 226 243 225
3 227 244 226
3 228 245 227
3 229 246 228
3 230 247 229
3 231 248 230
3 232 249 231
3 233 250 232
2 234 233
3 235 252 234
3 236 253 235
3 237 254 236
3 238 255 237
3 239 256 238
3 240 257 239
3 241 258 240
3 242 259 241
3 243 260 242
3 244 261 243
3 245 262 244
3 246 263 245
3 247 264 246
3 248 265 247
3 249 266 248
3 250 267 249
3 251 268 250
2 252 251
3 253 270 252
3 254 271 253
3 255 272 254
3 256 273 255
3 257 274 256
3 258 275 257
3 259 276 258
3 260 277 259
3 261 278 260
3 262 279 261
3 263 280 262
3 264 281 263
3 265 282 264
3 266 283 265
3 267 284 266
3 268 285 267
3 269 286 268
2 270 269
3 271 288 270
3 272 289 271
3 273 290 272
3 274 291 273
3 275 292 274
3 276 293 275
3 277 294 276
3 278 295 277
3 279 296 278
3 280 297 279
3 281 298 280
3 282 299 281
3 283 300 282
3 284 301 283
3 285 302 284
3 286 303 285
3 287 304 286
2 288 287
3 289 306 288
3 290 307 289
3 291 308 290
3 292 309 291
3 293 310 292
3 294 311 293
3 295 312 294
3 296 313 295
3 297 314 296
3 298 315 297
3 299 316 298
3 300 317 299
3 301 318 300
3 302 319 301
3 303 320 302
3 304 321 303
3 305 322 304
2 306 305
2 324 306
2 325 307
2 326 308
2 327 309
2 328 310
2 329 311
2 330 312
2 331 313
2 332 314
2 333 315
2 334 316
2 335 317
2 336 318
2 337 319
2 338 320
2 339 321
2 340 322
1  323
8
0 1 1 0 0 1 1 0
8
1 0 0 1 0 1 0 1
8
1 0 1 0 1 0 1 0
8
1 0 0 1 0 1 0 1
8
0 1 1 0 1 0 1 0
8
0 1 1 0 0 1 0 1
8
1 0 0 1 1 0 0 1
8
1 0 1 0 1 0 1 0
8
0 1 0 1 1 0 1 0
8
1 0 1 0 1 0 1 0
8
1 0 0 1 1 0 0 1
8
1 0 1 0 0 1 1 0
8
1 0 0 1 1 0 0 1
8
1 0 0 1 0 1 0 1
8
0 1 0 1 1 0 0 1
8
0 1 0 1 0 1 0 1
8
0 1 1 0 0 1 0 1
4
1 0 1 0
8
0 1 1 0 0 1 0 1
8
1 0 0 1 1 0 1 0
8
0 1 0 1 1 0 0 1
8
1 0 0 1 1 0 1 0
8
0 1 1 0 0 1 1 0
8
0 1 0 1 1 0 1 0
8
0.8994732427311924 0.10052675726880751 0.8500374733420542 0.1499625266579459 0.39299516300464343 0.6070048369953567 0.6810195305706372 0.3189804694293628
8
1 0 0 1 1 0 0 1
8
1 0 0 1 1 0 0 1
8
1 0 0 1 0 1 0 1
8
1 0 0 1 0 1 1 0
8
0 1 0 1 0 1 0 1
8
1 0 1 0 0 1 0 1
8
0 1 1 0 1 0 0 1
8
0 1 0 1 0 1 1 0
8
1 0 0 1 1 0 1 0
8
1 0 1 0 0 1 1 0
4
0 1 0 1
8
1 0 1 0 1 0 0 1
8
0.26096069368702324 0.7390393063129768 0.6834489763034022 0.3165510236965978 0.7644442417906259 0.2355557582093741 0.9811319253932664 0.018868074606733575
8
0 1 1 0 1 0 0 1
8
0.5995945472152591 0.40040545278474093 0.21010116147193078 0.7898988385280692 0.28946484757029245 0.7105351524297077 0.255133044512582 0.744866955487418
8
1 0 0 1 0 1 1 0
8
0 1 0 1 0 1 1 0
8
1 0 0 1 1 0 0 1
8
0 1 1 0 0 1 0 1
8
1 0 0 1 0 1 1 0
8
0 1 0 1 1 0 0 1
8
0 1 0 1 1 0 1 0
8
0 1 1 0 1 0 0 1
8
1 0 0 1 1 0 0 1
8
1 0 0 1 1 0 0 1
8
1 0 0 1 0 1 0 1
8
1 0 0 1 0 1 1 0
8
0 1 0 1 1 0 0 1
4
0 1 1 0
8
0 1 1 0 1 0 1 0
8
1 0 0 1 1 0 0 1
8
0 1 0 1 1 0 0 1
8
1 0 1 0 1 0 0 1
8
0 1 0 1 1 0 1 0
8
0 1 0 1 1 0 0 1
8
0 1 1 0 1 0 1 0
8
0.821456157438247 0.1785438425617531 0.9566376440299182 0.043362355970081756 0.3537017795384048 0.6462982204615951 0.028116286967171073 0.9718837130328289
8
1 0 0 1 1 0 0 1
8
0.40681951668213456 0.5931804833178654 0.4572303609062306 0.5427696390937694 0.09776675694094317 0.9022332430590568 0.3022237972898014 0.6977762027101985
8
0 1 1 0 1 0 1 0
8
0 1 0 1 1 0 0 1
8
0.7054871792018048 0.29451282079819524 0.9653693524115359 0.03463064758846415 0.864039405904189 0.1359605940958109 0.5269697599275625 0.47303024007243755
8
1 0 1 0 1 0 1 0
8
1 0 1 0 1 0 0 1
8
0 1 0 1 0 1 0 1
8
0 1 0 1 1 0 0 1
4
0 1 0 1
8
1 0 1 0 0 1 1 0
8
1 0 0 1 1 0 1 0
8
0 1 0 1 0 1 1 0
8
0 1 0 1 1 0 0 1
8
1 0 1 0 1 0 0 1
8
1 0 1 0 0 1 0 1
8
0 1 1 0 0 1 1 0
8
0.2646821777755614 0.7353178222244385 0.6727009752011253 0.32729902479887485 0.286486767861305 0.7135132321386951 0.4437338954656668 0.5562661045343332
8
1 0 0 1 1 0 0 1
8
0 1 0 1 1 0 0 1
8
1 0 1 0 0 1 0 1
8
0 1 0 1 1 0 1 0
8
0 1 0 1 0 1 1 0
8
0 1 1 0 0 1 1 0
8
1 0 0 1 0 1 0 1
8
0 1 0 1 1 0 1 0
8
0 1 1 0 0 1 1 0
4
1 0 0 1
8
1 0 0 1 1 0 1 0
8
0 1 0 1 1 0 1 0
8
0 1 0 1 0 1 0 1
8
0 1 0 1 0 1 0 1
8
1 0 1 0 1 0 1 0
8
0.7903645424692193 0.2096354575307807 0.7226030077855036 0.2773969922144965 0.4061511296282746 0.5938488703717254 0.24012353581125348 0.7598764641887465
8
0.2596245273655643 0.7403754726344357 0.8382572194213527 0.16174278057864727 0.773242718171981 0.226757281828019 0.16184516877456032 0.8381548312254397
8
0.7777702862372832 0.22222971376271683 0.38958114819451656 0.6104188518054834 0.6398908844350207 0.3601091155649792 0.6542310580918546 0.34576894190814544
8
0 1 0 1 1 0 0 1
8
1 0 1 0 1 0 0 1
8
0 1 0 1 1 0 0 1
8
1 0 1 0 0 1 1 0
8
1 0 1 0 1 0 1 0
8
1 0 1 0 0 1 0 1
8
0 1 0 1 0 1 0 1
8
0 1 1 0 1 0 0 1
8
1 0 0 1 0 1 1 0
4
1 0 1 0
8
1 0 1 0 0 1 1 0
8
1 0 1 0 1 0 0 1
8
1 0 1 0 1 0 0 1
8
0 1 0 1 1 0 0 1
8
1 0 1 0 1 0 0 1
8
0 1 1 0 1 0 0 1
8
1 0 0 1 0 1 0 1
8
0.6521764574609059 0.34782354253909414 0.8892774134544731 0.11072258654552689 0.7601518124614456 0.23984818753855436 0.04785556384740684 0.9521444361525931
8
1 0 0 1 1 0 1 0
8
0 1 0 1 0 1 0 1
8
1 0 1 0 1 0 0 1
8
0 1 1 0 0 1 1 0
8
0 1 0 1 0 1 1 0
8
1 0 1 0 1 0 1 0
8
0 1 0 1 1 0 0 1
8
0 1 1 0 0 1 1 0
8
0 1 0 1 0 1 1 0
4
1 0 0 1
8
1 0 0 1 0 1 1 0
8
1 0 1 0 1 0 0 1
8
1 0 0 1 1 0 1 0
8
0 1 1 0 1 0 0 1
8
0.8615579893213362 0.13844201067866377 0.9902131460043662 0.00978685399563386 0.4381703779255436 0.5618296220744563 0.5040580044446572 0.4959419955553429
8
0 1 0 1 1 0 1 0
8
0 1 0 1 0 1 1 0
8
0 1 0 1 0 1 0 1
8
1 0 0 1 0 1 0 1
8
1 0 0 1 0 1 0 1
8
0 1 1 0 1 0 0 1
8
0 1 1 0 1 0 0 1
8
0 1 0 1 0 1 1 0
8
1 0 1 0 1 0 0 1
8
1 0 1 0 1 0 1 0
8
0 1 1 0 0 1 1 0
8
0 1 0 1 0 1 0 1
4
0 1 0 1
8
1 0 0 1 1 0 1 0
8
0 1 1 0 0 1 0 1
8
1 0 1 0 1 0 1 0
8
0 1 0 1 0 1 0 1
8
1 0 1 0 0 1 0 1
8
1 0 1 0 0 1 0 1
8
0 1 1 0 1 0 1 0
8
0.7347401360397663 0.26525986396023377 0.14770926794149264 0.8522907320585074 0.9908522627450449 0.009147737254955076 0.8954250126346026 0.10457498736539736
8
1 0 1 0 1 0 0 1
8
0 1 0 1 0 1 1 0
8
1 0 1 0 0 1 1 0
8
1 0 0 1 1 0 1 0
8
0 1 0 1 1 0 0 1
8
0 1 0 1 1 0 0 1
8
0.41882741894638015 0.5811725810536199 0.7963038153234221 0.2036961846765779 0.5570083128316287 0.44299168716837145 0.25137001203319925 0.7486299879668007
8
1 0 0 1 1 0 0 1
8
1 0 1 0 1 0 0 1
4
0.26857863330608556 0.7314213666939146 0.8119741548560904 0.18802584514390966
8
0 1 0 1 0 1 1 0
8
0 1 1 0 1 0 0 1
8
0 1 1 0 0 1 1 0
8
1 0 1 0 0 1 0 1
8
0 1 1 0 1 0 0 1
8
0.026008857520879346 0.9739911424791207 0.6719547864149978 0.32804521358500205 0.5689678612737599 0.43103213872624013 0.37489171364145063 0.6251082863585493
8
1 0 0 1 0 1 0 1
8
1 0 1 0 1 0 0 1
8
0 1 0 1 1 0 0 1
8
1 0 1 0 1 0 1 0
8
1 0 1 0 1 0 1 0
8
1 0 1 0 0 1 0 1
8
0 1 1 0 1 0 1 0
8
1 0 1 0 1 0 1 0
8
1 0 0 1 1 0 1 0
8
1 0 0 1 0 1 1 0
8
0 1 0 1 1 0 0 1
4
1 0 0 1
8
1 0 0 1 1 0 1 0
8
1 0 1 0 0 1 0 1
8
0.7793568726063035 0.22064312739369654 0.6923438832211983 0.3076561167788017 0.858603000810432 0.141396999189568 0.6763686495213658 0.3236313504786342
8
0 1 0 1 0 1 1 0
8
1 0 0 1 0 1 1 0
8
1 0 1 0 0 1 0 1
8
0.3967356147983822 0.6032643852016178 0.4042597690737859 0.595740230926214 0.5856729890399611 0.41432701096003893 0.9295122978659095 0.07048770213409047
8
1 0 0 1 1 0 0 1
8
1 0 0 1 0 1 1 0
8
1 0 1 0 0 1 1 0
8
0 1 0 1 1 0 0 1
8
0 1 0 1 1 0 0 1
8
0 1 0 1 0 1 0 1
8
1 0 1 0 1 0 1 0
8
1 0 0 1 0 1 0 1
8
0 1 0 1 1 0 0 1
8
1 0 1 0 1 0 1 0
4
0.7719045867562652 0.2280954132437348 0.44328372263335175 0.5567162773666483
8
0 1 0 1 1 0 0 1
8
1 0 1 0 0 1 0 1
8
1 0 1 0 0 1 0 1
8
0 1 1 0 1 0 1 0
8
0 1 0 1 1 0 1 0
8
1 0 1 0 1 0 1 0
8
0 1 1 0 0 1 1 0
8
0 1 0 1 1 0 1 0
8
0 1 1 0 0 1 1 0
8
0 1 0 1 1 0 1 0
8
1 0 0 1 0 1 0 1
8
0 1 0 1 1 0 0 1
8
1 0 1 0 1 0 0 1
8
1 0 1 0 1 0 0 1
8
1 0 1 0 0 1 0 1
8
1 0 0 1 0 1 0 1
8
0 1 1 0 1 0 0 1
4
1 0 0 1
8
1 0 1 0 1 0 0 1
8
0.01326292725252815 0.9867370727474718 0.9971620604075344 0.002837939592465628 0.22021763163077057 0.7797823683692295 0.36895620707969434 0.6310437929203058
8
0 1 1 0 0 1 0 1
8
0 1 0 1 0 1 0 1
8
1 0 1 0 0 1 1 0
8
0 1 1 0 1 0 1 0
8
1 0 0 1 0 1 0 1
8
0 1 1 0 0 1 1 0
8
0.1579595291107702 0.8420404708892297 0.3115820767488526 0.6884179232511474 0.3399148490493977 0.6600851509506023 0.23348570787698686 0.7665142921230131
8
0 1 0 1 1 0 1 0
8
0 1 1 0 1 0 1 0
8
0.32948232086621027 0.6705176791337898 0.21743101196009565 0.7825689880399044 0.5537001540013387 0.44629984599866135 0.2781813879900361 0.7218186120099639
8
1 0 1 0 0 1 0 1
8
1 0 0 1 1 0 1 0
8
0.6479129191139732 0.3520870808860268 0.10891622236306807 0.8910837776369319 0.648397863146418 0.35160213685358205 0.5785743709925727 0.42142562900742736
8
1 0 0 1 0 1 0 1
8
0.18880465869734173 0.8111953413026582 0.1241613806947823 0.8758386193052177 0.3353345414407943 0.6646654585592057 0.31834850986095403 0.681651490139046
4
0 1 0 1
8
0 1 1 0 0 1 1 0
8
0.12770868618616768 0.8722913138138323 0.09136346126322603 0.908636538736774 0.28129705307375563 0.7187029469262444 0.7444217380610028 0.2555782619389972
8
0 1 0 1 1 0 0 1
8
1 0 0 1 0 1 0 1
8
1 0 0 1 1 0 0 1
8
0 1 1 0 0 1 1 0
8
1 0 1 0 0 1 0 1
8
0 1 0 1 1 0 1 0
8
1 0 0 1 0 1 1 0
8
0 1 1 0 1 0 1 0
8
1 0 0 1 0 1 0 1
8
0.943885934246784 0.056114065753215946 0.544819149759365 0.45518085024063504 0.28783169772677597 0.712168302273224 0.3234215884637952 0.6765784115362048
8
1 0 1 0 0 1 0 1
8
0 1 1 0 0 1 0 1
8
0 1 1 0 0 1 1 0
8
1 0 1 0 1 0 0 1
8
0.20842662426689304 0.7915733757331069 0.9221298883201322 0.07787011167986779 0.8845856798386764 0.11541432016132364 0.9259828368822797 0.07401716311772036
4
0 1 0 1
8
1 0 1 0 0 1 0 1
8
0 1 0 1 0 1 1 0
8
1 0 0 1 1 0 0 1
8
1 0 1 0 0 1 0 1
8
1 0 0 1 0 1 1 0
8
0.8413490631334773 0.1586509368665226 0.9413076778958794 0.058692322104120585 0.1419640155127004 0.8580359844872996 0.32524145049463693 0.6747585495053631
8
1 0 0 1 1 0 1 0
8
1 0 1 0 1 0 0 1
8
0 1 0 1 1 0 0 1
8
0 1 0 1 0 1 1 0
8
1 0 0 1 1 0 1 0
8
1 0 1 0 1 0 0 1
8
0 1 0 1 0 1 0 1
8
0 1 1 0 0 1 1 0
8
0.1734588831534858 0.8265411168465142 0.5161032511297783 0.48389674887022166 0.120806751546381 0.879193248453619 0.8547146986571332 0.14528530134286666
8
1 0 0 1 0 1 0 1
8
1 0 0 1 1 0 0 1
4
0 1 0 1
8
0 1 1 0 1 0 1 0
8
1 0 1 0 1 0 0 1
8
0.2576358480701257 0.7423641519298744 0.3245883474922159 0.6754116525077841 0.30307119902851026 0.6969288009714898 0.08127212585324305 0.9187278741467569
8
0 1 1 0 0 1 0 1
8
0 1 1 0 1 0 1 0
8
1 0 0 1 0 1 1 0
8
0 1 0 1 0 1 1 0
8
1 0 1 0 1 0 1 0
8
1 0 1 0 1 0 1 0
8
0.6910980889056594 0.3089019110943407 0.9635308912381766 0.036469108761823396 0.32176622152498835 0.6782337784750117 0.5705994539263768 0.42940054607362316
8
1 0 0 1 1 0 1 0
8
1 0 0 1 1 0 0 1
8
0 1 0 1 0 1 1 0
8
0 1 0 1 1 0 0 1
8
1 0 1 0 0 1 0 1
8
1 0 1 0 1 0 0 1
8
0 1 1 0 0 1 1 0
4
1 0 0 1
8
0 1 1 0 0 1 0 1
8
1 0 1 0 0 1 0 1
8
1 0 1 0 0 1 0 1
8
0 1 1 0 0 1 1 0
8
1 0 1 0 0 1 1 0
8
0 1 0 1 1 0 1 0
8
0.7092212740660416 0.2907787259339583 0.48343412952608966 0.5165658704739103 0.794388164549909 0.20561183545009085 0.2244150731928332 0.7755849268071668
8
0 1 1 0 1 0 0 1
8
1 0 1 0 1 0 0 1
8
1 0 0 1 1 0 0 1
8
0 1 1 0 1 0 0 1
8
0.1426821659842273 0.8573178340157727 0.47360482329830683 0.5263951767016932 0.8002346993735819 0.19976530062641806 0.330292677092027 0.669707322907973
8
0 1 1 0 1 0 1 0
8
1 0 1 0 1 0 1 0
8
1 0 0 1 1 0 1 0
8
1 0 0 1 1 0 0 1
8
1 0 0 1 0 1 0 1
4
0 1 1 0
4
0 1 0 1
4
1 0 1 0
4
1 0 0 1
4
1 0 1 0
4
0 1 1 0
4
1 0 0 1
4
0 1 0 1
4
0 1 0 1
4
0 1 1 0
4
1 0 0 1
4
0 1 0 1
4
0 1 0 1
4
1 0 1 0
4
0 1 1 0
4
1 0 0 1
4
1 0 1 0
4
1 0 0 1
2
0 1
